NAME : netgen20-5-15
COMMENT : Generated using the function generateClusteredNetwork from the R-package netgen (Bossek,2015) - Number of clusters: 5
TYPE : TSP
DIMENSION : 20
EDGE_WEIGHT_TYPE : EUC_2D
NODE_COORD_SECTION
1 7.381744365 34.5880425091
2 3.4213708394 52.8305247848
3 17.2900884762 40.0805593331
4 3.9987441619 50.2226154463
5 83.8315804948 43.1063147421
6 76.9390780106 40.5779215462
7 86.7846163493 35.6859990694
8 81.1891666593 47.5492208051
9 55.2496410137 74.5781075318
10 53.7639403555 68.268019753
11 56.7128389669 66.1806775278
12 44.4342056407 71.4193152449
13 36.9501940149 97.0372637619
14 28.0308269157 88.2016272664
15 39.737134638 84.0725778739
16 41.3326529742 93.6723586197
17 67.933147 9.3738867037
18 68.4595341744 3.6435899189
19 72.5426946133 7.672275507
20 56.6295191688 0.8004769719
EOF
